Set parameter TSPort to value 51199
Set parameter TokenServer to value "open-license1.lanl.gov"
Set parameter TimeLimit to value 64
Set parameter Threads to value 1
Gurobi Optimizer version 10.0.3 build v10.0.3rc0 (linux64)

CPU model: Intel(R) Xeon(R) CPU E5-2695 v4 @ 2.10GHz, instruction set [SSE2|AVX|AVX2]
Thread count: 36 physical cores, 72 logical processors, using up to 1 threads

Optimize a model with 0 rows, 598 columns and 0 nonzeros
Model fingerprint: 0xad92ac9b
Model has 2588 quadratic objective terms
Variable types: 0 continuous, 598 integer (598 binary)
Coefficient statistics:
  Matrix range     [0e+00, 0e+00]
  Objective range  [2e+00, 3e+01]
  QObjective range [8e+00, 8e+00]
  Bounds range     [1e+00, 1e+00]
  RHS range        [0e+00, 0e+00]
Found heuristic solution: objective 0.0000000
Found heuristic solution: objective -1018.000000
Found heuristic solution: objective -3568.000000
Found heuristic solution: objective -3594.000000
Presolve time: 0.23s
Presolved: 2588 rows, 3186 columns, 7764 nonzeros
Variable types: 0 continuous, 3186 integer (3186 binary)

Root relaxation: objective -4.851000e+03, 753 iterations, 0.02 seconds (0.01 work units)

    Nodes    |    Current Node    |     Objective Bounds      |     Work
 Expl Unexpl |  Obj  Depth IntInf | Incumbent    BestBd   Gap | It/Node Time

     0     0 -4851.0000    0  598 -3594.0000 -4851.0000  35.0%     -    0s
     0     0 -4454.0000    0  806 -3594.0000 -4454.0000  23.9%     -    0s
     0     0 -4452.0000    0  811 -3594.0000 -4452.0000  23.9%     -    0s
     0     0 -4358.2500    0  878 -3594.0000 -4358.2500  21.3%     -    0s
     0     0 -4358.2500    0  878 -3594.0000 -4358.2500  21.3%     -    1s
     0     2 -4357.9167    0  876 -3594.0000 -4357.9167  21.3%     -    1s
   513   482 -3896.3333   60  598 -3594.0000 -4347.0119  21.0%  79.5    5s
   534   496 -3956.2500   53 1759 -3594.0000 -3980.9372  10.8%  76.4   10s
   544   503 -3748.5000   83 2073 -3594.0000 -3926.0515  9.24%  75.0   15s
   552   508 -3879.7199   19 2470 -3594.0000 -3879.7199  7.95%  73.9   21s
   559   513 -3606.0000  118 2569 -3594.0000 -3854.4292  7.25%  73.0   27s
   562   515 -3695.5000   93 2635 -3594.0000 -3848.9845  7.09%  72.6   30s
   567   518 -3830.3144   40 2625 -3594.0000 -3830.3144  6.58%  72.0   35s
   574   523 -3723.0000   94 2698 -3594.0000 -3821.2551  6.32%  71.1   40s
   582   528 -3796.0000   75 2733 -3594.0000 -3814.7660  6.14%  70.1   45s
   594   536 -3807.7809   19 2737 -3594.0000 -3807.7809  5.95%  68.7   50s
   604   543 -3725.5000   87 2792 -3594.0000 -3803.0018  5.82%  67.5   55s
   614   550 -3797.1729   64 2757 -3594.0000 -3797.1729  5.65%  66.4   60s

Cutting planes:
  Gomory: 26
  MIR: 109
  Flow cover: 963
  Zero half: 490
  Mod-K: 9
  RLT: 99
  BQP: 139

Explored 620 nodes (184853 simplex iterations) in 64.00 seconds (67.55 work units)
Thread count was 1 (of 72 available processors)

Solution count 4: -3594 -3568 -1018 0 

Time limit reached
Best objective -3.594000000000e+03, best bound -3.792000000000e+03, gap 5.5092%

User-callback calls 4194, time in user-callback 0.02 sec

BQP_SOLUTION, 598, 2588, -1331.000000, 64.000634, 1, 1, 1, -1, 1, 1, 1, 1, 1, 1, 1, 1, 1, 1, -1, 1, 1, 1, 1, -1, 1, 1, 1, 1, 1, -1, 1, 1, 1, -1, 1, 1, 1, 1, 1, 1, 1, 1, 1, -1, 1, 1, 1, 1, -1, 1, 1, 1, 1, 1, -1, 1, 1, 1, -1, 1, 1, 1, -1, -1, -1, 1, 1, -1, -1, 1, 1, 1, 1, -1, 1, 1, 1, -1, -1, 1, 1, 1, -1, -1, 1, 1, -1, 1, -1, 1, -1, 1, 1, -1, 1, 1, -1, -1, -1, -1, 1, 1, 1, -1, -1, 1, -1, 1, -1, -1, 1, 1, 1, -1, -1, -1, 1, 1, 1, -1, 1, 1, -1, -1, -1, 1, 1, -1, 1, 1, -1, 1, -1, 1, -1, -1, 1, -1, -1, -1, 1, 1, -1, 1, -1, 1, 1, -1, -1, 1, -1, 1, -1, -1, -1, -1, 1, 1, -1, -1, 1, -1, -1, -1, -1, 1, 1, -1, -1, -1, 1, -1, -1, 1, -1, -1, -1, -1, -1, 1, -1, 1, -1, -1, -1, -1, -1, -1, -1, 1, 1, -1, -1, -1, -1, -1, -1, -1, 1, -1, 1, -1, -1, 1, -1, -1, -1, -1, 1, -1, -1, 1, -1, 1, -1, -1, -1, 1, 1, -1, 1, -1, 1, 1, 1, -1, -1, -1, 1, 1, -1, 1, -1, 1, -1, -1, -1, 1, 1, 1, -1, 1, 1, 1, -1, 1, -1, 1, 1, -1, 1, -1, 1, 1, -1, 1, -1, 1, 1, -1, 1, 1, 1, 1, 1, 1, -1, 1, 1, 1, 1, 1, 1, -1, -1, -1, 1, 1, 1, -1, 1, -1, 1, -1, 1, -1, 1, 1, -1, -1, -1, 1, 1, 1, -1, -1, 1, 1, -1, -1, -1, 1, 1, -1, 1, 1, -1, 1, 1, -1, 1, -1, 1, -1, 1, 1, -1, 1, -1, 1, 1, -1, 1, -1, 1, 1, -1, 1, 1, 1, -1, 1, -1, -1, 1, -1, 1, -1, -1, 1, -1, -1, -1, -1, 1, -1, 1, -1, -1, 1, -1, -1, -1, -1, 1, 1, -1, 1, 1, 1, 1, -1, -1, -1, 1, -1, 1, 1, -1, 1, -1, 1, -1, -1, 1, -1, 1, -1, -1, 1, -1, 1, -1, 1, -1, 1, 1, -1, 1, 1, 1, 1, -1, -1, 1, 1, 1, -1, -1, -1, 1, 1, -1, -1, 1, 1, 1, -1, -1, -1, 1, 1, 1, 1, 1, 1, 1, -1, 1, -1, 1, 1, -1, 1, 1, 1, 1, -1, -1, 1, 1, 1, -1, -1, 1, 1, 1, -1, -1, 1, -1, 1, -1, -1, 1, -1, 1, -1, 1, 1, 1, -1, -1, -1, -1, 1, -1, -1, 1, -1, 1, 1, -1, -1, -1, 1, -1, -1, 1, -1, 1, -1, -1, -1, 1, -1, -1, -1, -1, 1, 1, -1, -1, 1, 1, -1, -1, -1, -1, -1, -1, 1, -1, 1, 1, 1, 1, 1, 1, -1, 1, -1, -1, 1, 1, 1, -1, -1, 1, 1, 1, -1, 1, 1, 1, 1, -1, -1, 1, 1, 1, -1, -1, 1, 1, 1, -1, 1, 1, 1, 1, -1, 1, 1, 1, 1, -1, -1, 1, 1, 1, -1, 1, -1, 1, -1, 1, 1, 1, 1, -1, -1, 1, 1, 1, -1, 1, 1, -1, 1, 1, -1, 1, 1, 1, 1, -1, 1, 1, 1, -1, -1, 1, -1, 1, -1, 1, 1, 1, -1, 1, 1, -1, 1, -1, 1, -1, 1, 1, 1, 1, -1, 1, 1, -1, 1, 1, 1, -1, 1, 1, -1
BQP_DATA, 598, 2588, -1331.000000, -1529.000000, -3594.000000, -3792.000000, 64.000634, 1597, 620
